c Created with the Wolfram Language : www.wolfram.com
c 
p edge 90 799
e 2 4
e 2 8
e 4 8
e 7 8
e 3 9
e 4 9
e 6 9
e 2 10
e 8 10
e 9 11
e 10 12
e 11 12
e 1 13
e 1 14
e 6 14
e 7 14
e 12 14
e 2 15
e 10 15
e 2 16
e 5 16
e 15 16
e 2 17
e 8 17
e 12 17
e 15 17
e 8 18
e 13 18
e 1 19
e 3 19
e 6 19
e 18 19
e 16 20
e 4 21
e 17 21
e 18 21
e 2 22
e 5 22
e 8 22
e 16 22
e 17 22
e 21 22
e 1 23
e 9 23
e 10 23
e 4 24
e 8 24
e 5 25
e 12 25
e 19 25
e 20 25
e 24 25
e 13 26
e 15 26
e 19 26
e 9 27
e 10 27
e 13 27
e 21 27
e 25 27
e 7 28
e 9 28
e 13 28
e 18 28
e 19 28
e 4 29
e 7 29
e 9 29
e 14 29
e 19 29
e 26 29
e 3 30
e 4 30
e 5 30
e 6 30
e 14 30
e 16 30
e 23 30
e 24 30
e 25 30
e 1 31
e 10 31
e 11 31
e 13 31
e 14 31
e 20 31
e 21 31
e 23 31
e 28 31
e 7 32
e 16 32
e 17 32
e 20 32
e 26 32
e 27 32
e 11 33
e 19 33
e 21 33
e 22 33
e 24 33
e 29 33
e 4 34
e 10 34
e 12 34
e 17 34
e 18 34
e 5 35
e 17 35
e 22 35
e 24 35
e 26 35
e 30 35
e 34 35
e 3 36
e 7 36
e 13 36
e 18 36
e 20 36
e 22 36
e 23 36
e 8 37
e 10 37
e 12 37
e 17 37
e 36 37
e 4 38
e 14 38
e 17 38
e 18 38
e 24 38
e 30 38
e 33 38
e 34 38
e 4 39
e 14 39
e 30 39
e 34 39
e 3 40
e 8 40
e 20 40
e 21 40
e 29 40
e 32 40
e 35 40
e 2 41
e 10 41
e 21 41
e 31 41
e 4 42
e 7 42
e 13 42
e 17 42
e 26 42
e 27 42
e 28 42
e 31 42
e 4 43
e 5 43
e 11 43
e 13 43
e 17 43
e 19 43
e 27 43
e 29 43
e 31 43
e 4 44
e 15 44
e 21 44
e 23 44
e 24 44
e 37 44
e 41 44
e 42 44
e 43 44
e 1 45
e 14 45
e 16 45
e 23 45
e 24 45
e 37 45
e 2 46
e 7 46
e 10 46
e 12 46
e 13 46
e 17 46
e 26 46
e 27 46
e 29 46
e 35 46
e 37 46
e 42 46
e 3 47
e 25 47
e 26 47
e 33 47
e 36 47
e 40 47
e 17 48
e 19 48
e 24 48
e 27 48
e 31 48
e 37 48
e 38 48
e 42 48
e 45 48
e 4 49
e 5 49
e 20 49
e 21 49
e 24 49
e 26 49
e 30 49
e 34 49
e 36 49
e 44 49
e 45 49
e 3 50
e 6 50
e 7 50
e 9 50
e 12 50
e 19 50
e 24 50
e 29 50
e 32 50
e 36 50
e 38 50
e 46 50
e 3 51
e 8 51
e 10 51
e 21 51
e 24 51
e 28 51
e 31 51
e 4 52
e 17 52
e 19 52
e 22 52
e 23 52
e 24 52
e 31 52
e 36 52
e 38 52
e 48 52
e 49 52
e 3 53
e 5 53
e 10 53
e 12 53
e 22 53
e 27 53
e 31 53
e 35 53
e 36 53
e 37 53
e 44 53
e 1 54
e 8 54
e 18 54
e 19 54
e 22 54
e 26 54
e 30 54
e 32 54
e 45 54
e 47 54
e 2 55
e 3 55
e 7 55
e 10 55
e 14 55
e 19 55
e 20 55
e 29 55
e 36 55
e 39 55
e 41 55
e 46 55
e 48 55
e 50 55
e 53 55
e 22 56
e 23 56
e 26 56
e 27 56
e 31 56
e 32 56
e 34 56
e 36 56
e 37 56
e 41 56
e 6 57
e 20 57
e 23 57
e 24 57
e 26 57
e 30 57
e 39 57
e 40 57
e 46 57
e 47 57
e 9 58
e 20 58
e 23 58
e 24 58
e 29 58
e 30 58
e 33 58
e 34 58
e 37 58
e 42 58
e 43 58
e 48 58
e 50 58
e 52 58
e 3 59
e 4 59
e 15 59
e 29 59
e 37 59
e 38 59
e 3 60
e 5 60
e 11 60
e 12 60
e 17 60
e 22 60
e 24 60
e 31 60
e 51 60
e 57 60
e 58 60
e 6 61
e 13 61
e 19 61
e 23 61
e 25 61
e 32 61
e 33 61
e 41 61
e 45 61
e 47 61
e 48 61
e 51 61
e 7 62
e 11 62
e 20 62
e 21 62
e 22 62
e 24 62
e 34 62
e 43 62
e 46 62
e 51 62
e 56 62
e 60 62
e 12 63
e 16 63
e 39 63
e 47 63
e 49 63
e 50 63
e 57 63
e 5 64
e 9 64
e 12 64
e 14 64
e 15 64
e 22 64
e 24 64
e 25 64
e 30 64
e 36 64
e 44 64
e 47 64
e 61 64
e 12 65
e 16 65
e 18 65
e 20 65
e 21 65
e 25 65
e 27 65
e 30 65
e 32 65
e 35 65
e 39 65
e 42 65
e 45 65
e 47 65
e 55 65
e 57 65
e 59 65
e 12 66
e 15 66
e 20 66
e 21 66
e 22 66
e 37 66
e 41 66
e 50 66
e 51 66
e 55 66
e 60 66
e 64 66
e 5 67
e 9 67
e 10 67
e 11 67
e 13 67
e 14 67
e 19 67
e 24 67
e 31 67
e 47 67
e 49 67
e 50 67
e 53 67
e 58 67
e 59 67
e 60 67
e 61 67
e 63 67
e 1 68
e 22 68
e 31 68
e 37 68
e 42 68
e 46 68
e 49 68
e 54 68
e 66 68
e 18 69
e 24 69
e 28 69
e 30 69
e 31 69
e 36 69
e 39 69
e 41 69
e 42 69
e 43 69
e 50 69
e 55 69
e 57 69
e 65 69
e 66 69
e 9 70
e 11 70
e 19 70
e 25 70
e 31 70
e 37 70
e 39 70
e 40 70
e 41 70
e 46 70
e 59 70
e 62 70
e 63 70
e 67 70
e 1 71
e 2 71
e 6 71
e 11 71
e 22 71
e 24 71
e 28 71
e 31 71
e 34 71
e 35 71
e 41 71
e 46 71
e 56 71
e 59 71
e 62 71
e 68 71
e 6 72
e 9 72
e 14 72
e 22 72
e 25 72
e 26 72
e 29 72
e 32 72
e 35 72
e 38 72
e 43 72
e 44 72
e 47 72
e 51 72
e 52 72
e 56 72
e 58 72
e 64 72
e 2 73
e 3 73
e 4 73
e 10 73
e 11 73
e 16 73
e 18 73
e 20 73
e 22 73
e 26 73
e 34 73
e 38 73
e 40 73
e 41 73
e 43 73
e 55 73
e 62 73
e 67 73
e 8 74
e 9 74
e 13 74
e 21 74
e 27 74
e 30 74
e 43 74
e 47 74
e 58 74
e 66 74
e 67 74
e 68 74
e 71 74
e 72 74
e 2 75
e 13 75
e 16 75
e 23 75
e 25 75
e 38 75
e 41 75
e 46 75
e 48 75
e 49 75
e 59 75
e 61 75
e 63 75
e 69 75
e 70 75
e 73 75
e 5 76
e 9 76
e 12 76
e 15 76
e 16 76
e 23 76
e 27 76
e 28 76
e 39 76
e 45 76
e 51 76
e 56 76
e 61 76
e 63 76
e 64 76
e 65 76
e 70 76
e 71 76
e 74 76
e 5 77
e 7 77
e 19 77
e 23 77
e 28 77
e 29 77
e 33 77
e 40 77
e 44 77
e 48 77
e 50 77
e 51 77
e 58 77
e 61 77
e 62 77
e 67 77
e 75 77
e 3 78
e 15 78
e 27 78
e 38 78
e 39 78
e 41 78
e 42 78
e 45 78
e 47 78
e 48 78
e 52 78
e 64 78
e 77 78
e 1 79
e 10 79
e 11 79
e 17 79
e 19 79
e 20 79
e 22 79
e 26 79
e 31 79
e 37 79
e 39 79
e 40 79
e 42 79
e 55 79
e 64 79
e 67 79
e 68 79
e 73 79
e 3 80
e 5 80
e 11 80
e 13 80
e 14 80
e 29 80
e 33 80
e 41 80
e 56 80
e 61 80
e 64 80
e 71 80
e 75 80
e 78 80
e 1 81
e 5 81
e 12 81
e 14 81
e 18 81
e 20 81
e 22 81
e 34 81
e 35 81
e 41 81
e 42 81
e 46 81
e 61 81
e 62 81
e 68 81
e 77 81
e 4 82
e 15 82
e 26 82
e 27 82
e 37 82
e 38 82
e 39 82
e 42 82
e 44 82
e 56 82
e 63 82
e 65 82
e 77 82
e 78 82
e 81 82
e 3 83
e 5 83
e 13 83
e 20 83
e 21 83
e 23 83
e 25 83
e 33 83
e 39 83
e 41 83
e 52 83
e 60 83
e 65 83
e 72 83
e 78 83
e 79 83
e 80 83
e 81 83
e 2 84
e 12 84
e 17 84
e 26 84
e 34 84
e 37 84
e 42 84
e 50 84
e 63 84
e 68 84
e 74 84
e 76 84
e 77 84
e 82 84
e 6 85
e 14 85
e 19 85
e 42 85
e 55 85
e 64 85
e 70 85
e 79 85
e 2 86
e 9 86
e 17 86
e 31 86
e 37 86
e 51 86
e 63 86
e 67 86
e 80 86
e 81 86
e 84 86
e 3 87
e 4 87
e 15 87
e 25 87
e 37 87
e 42 87
e 43 87
e 45 87
e 47 87
e 48 87
e 49 87
e 59 87
e 61 87
e 65 87
e 74 87
e 75 87
e 77 87
e 80 87
e 81 87
e 1 88
e 4 88
e 8 88
e 23 88
e 24 88
e 26 88
e 35 88
e 38 88
e 43 88
e 53 88
e 54 88
e 59 88
e 60 88
e 65 88
e 67 88
e 70 88
e 73 88
e 77 88
e 78 88
e 85 88
e 86 88
e 3 89
e 4 89
e 8 89
e 10 89
e 12 89
e 15 89
e 17 89
e 20 89
e 30 89
e 40 89
e 41 89
e 45 89
e 46 89
e 47 89
e 56 89
e 59 89
e 66 89
e 68 89
e 72 89
e 74 89
e 78 89
e 81 89
e 85 89
e 1 90
e 3 90
e 5 90
e 7 90
e 8 90
e 12 90
e 18 90
e 20 90
e 24 90
e 29 90
e 33 90
e 36 90
e 40 90
e 41 90
e 43 90
e 50 90
e 52 90
e 54 90
e 55 90
e 57 90
e 58 90
e 62 90
e 66 90
e 67 90
e 68 90
e 73 90
e 89 90
